treewidth/data/CompleteBipartiteGraph_25_20.gr
p tw 45 500
1 19
1 20
1 21
1 22
1 23
1 25
1 26
1 27
1 28
1 29
1 30
1 31
1 32
1 33
1 34
1 36
1 37
1 38
1 39
1 40
2 19
2 20
2 21
2 22
2 23
2 25
2 26
2 27
2 28
2 29
2 30
2 31
2 32
2 33
2 34
2 36
2 37
2 38
2 39
2 40
13 19
13 20
13 21
13 22
13 23
13 25
13 26
13 27
13 28
13 29
13 30
13 31
13 32
13 33
13 34
13 36
13 37
13 38
13 39
13 40
24 19
24 20
24 21
24 22
24 23
24 25
24 26
24 27
24 28
24 29
24 30
24 31
24 32
24 33
24 34
24 36
24 37
24 38
24 39
24 40
35 19
35 20
35 21
35 22
35 23
35 25
35 26
35 27
35 28
35 29
35 30
35 31
35 32
35 33
35 34
35 36
35 37
35 38
35 39
35 40
41 19
41 20
41 21
41 22
41 23
41 25
41 26
41 27
41 28
41 29
41 30
41 31
41 32
41 33
41 34
41 36
41 37
41 38
41 39
41 40
42 19
42 20
42 21
42 22
42 23
42 25
42 26
42 27
42 28
42 29
42 30
42 31
42 32
42 33
42 34
42 36
42 37
42 38
42 39
42 40
43 19
43 20
43 21
43 22
43 23
43 25
43 26
43 27
43 28
43 29
43 30
43 31
43 32
43 33
43 34
43 36
43 37
43 38
43 39
43 40
44 19
44 20
44 21
44 22
44 23
44 25
44 26
44 27
44 28
44 29
44 30
44 31
44 32
44 33
44 34
44 36
44 37
44 38
44 39
44 40
45 19
45 20
45 21
45 22
45 23
45 25
45 26
45 27
45 28
45 29
45 30
45 31
45 32
45 33
45 34
45 36
45 37
45 38
45 39
45 40
3 19
3 20
3 21
3 22
3 23
3 25
3 26
3 27
3 28
3 29
3 30
3 31
3 32
3 33
3 34
3 36
3 37
3 38
3 39
3 40
4 19
4 20
4 21
4 22
4 23
4 25
4 26
4 27
4 28
4 29
4 30
4 31
4 32
4 33
4 34
4 36
4 37
4 38
4 39
4 40
5 19
5 20
5 21
5 22
5 23
5 25
5 26
5 27
5 28
5 29
5 30
5 31
5 32
5 33
5 34
5 36
5 37
5 38
5 39
5 40
6 19
6 20
6 21
6 22
6 23
6 25
6 26
6 27
6 28
6 29
6 30
6 31
6 32
6 33
6 34
6 36
6 37
6 38
6 39
6 40
7 19
7 20
7 21
7 22
7 23
7 25
7 26
7 27
7 28
7 29
7 30
7 31
7 32
7 33
7 34
7 36
7 37
7 38
7 39
7 40
8 19
8 20
8 21
8 22
8 23
8 25
8 26
8 27
8 28
8 29
8 30
8 31
8 32
8 33
8 34
8 36
8 37
8 38
8 39
8 40
9 19
9 20
9 21
9 22
9 23
9 25
9 26
9 27
9 28
9 29
9 30
9 31
9 32
9 33
9 34
9 36
9 37
9 38
9 39
9 40
10 19
10 20
10 21
10 22
10 23
10 25
10 26
10 27
10 28
10 29
10 30
10 31
10 32
10 33
10 34
10 36
10 37
10 38
10 39
10 40
11 19
11 20
11 21
11 22
11 23
11 25
11 26
11 27
11 28
11 29
11 30
11 31
11 32
11 33
11 34
11 36
11 37
11 38
11 39
11 40
12 19
12 20
12 21
12 22
12 23
12 25
12 26
12 27
12 28
12 29
12 30
12 31
12 32
12 33
12 34
12 36
12 37
12 38
12 39
12 40
14 19
14 20
14 21
14 22
14 23
14 25
14 26
14 27
14 28
14 29
14 30
14 31
14 32
14 33
14 34
14 36
14 37
14 38
14 39
14 40
15 19
15 20
15 21
15 22
15 23
15 25
15 26
15 27
15 28
15 29
15 30
15 31
15 32
15 33
15 34
15 36
15 37
15 38
15 39
15 40
16 19
16 20
16 21
16 22
16 23
16 25
16 26
16 27
16 28
16 29
16 30
16 31
16 32
16 33
16 34
16 36
16 37
16 38
16 39
16 40
17 19
17 20
17 21
17 22
17 23
17 25
17 26
17 27
17 28
17 29
17 30
17 31
17 32
17 33
17 34
17 36
17 37
17 38
17 39
17 40
18 19
18 20
18 21
18 22
18 23
18 25
18 26
18 27
18 28
18 29
18 30
18 31
18 32
18 33
18 34
18 36
18 37
18 38
18 39
18 40
