treewidth/data/CompleteBipartiteGraph_25_20.td
c width = 20, time = 161.730166
s td 25 21 45
b 1 19 20 21 22 23 25 26 27 28 29 30 31 32 33 34 36 37 38 39 40 45
b 2 1 19 20 21 22 23 25 26 27 28 29 30 31 32 33 34 36 37 38 39 40
b 3 2 19 20 21 22 23 25 26 27 28 29 30 31 32 33 34 36 37 38 39 40
b 4 3 19 20 21 22 23 25 26 27 28 29 30 31 32 33 34 36 37 38 39 40
b 5 4 19 20 21 22 23 25 26 27 28 29 30 31 32 33 34 36 37 38 39 40
b 6 5 19 20 21 22 23 25 26 27 28 29 30 31 32 33 34 36 37 38 39 40
b 7 6 19 20 21 22 23 25 26 27 28 29 30 31 32 33 34 36 37 38 39 40
b 8 7 19 20 21 22 23 25 26 27 28 29 30 31 32 33 34 36 37 38 39 40
b 9 8 19 20 21 22 23 25 26 27 28 29 30 31 32 33 34 36 37 38 39 40
b 10 9 19 20 21 22 23 25 26 27 28 29 30 31 32 33 34 36 37 38 39 40
b 11 10 19 20 21 22 23 25 26 27 28 29 30 31 32 33 34 36 37 38 39 40
b 12 11 19 20 21 22 23 25 26 27 28 29 30 31 32 33 34 36 37 38 39 40
b 13 12 19 20 21 22 23 25 26 27 28 29 30 31 32 33 34 36 37 38 39 40
b 14 13 19 20 21 22 23 25 26 27 28 29 30 31 32 33 34 36 37 38 39 40
b 15 14 19 20 21 22 23 25 26 27 28 29 30 31 32 33 34 36 37 38 39 40
b 16 15 19 20 21 22 23 25 26 27 28 29 30 31 32 33 34 36 37 38 39 40
b 17 16 19 20 21 22 23 25 26 27 28 29 30 31 32 33 34 36 37 38 39 40
b 18 17 19 20 21 22 23 25 26 27 28 29 30 31 32 33 34 36 37 38 39 40
b 19 18 19 20 21 22 23 25 26 27 28 29 30 31 32 33 34 36 37 38 39 40
b 20 19 20 21 22 23 24 25 26 27 28 29 30 31 32 33 34 36 37 38 39 40
b 21 19 20 21 22 23 25 26 27 28 29 30 31 32 33 34 35 36 37 38 39 40
b 22 19 20 21 22 23 25 26 27 28 29 30 31 32 33 34 36 37 38 39 40 41
b 23 19 20 21 22 23 25 26 27 28 29 30 31 32 33 34 36 37 38 39 40 42
b 24 19 20 21 22 23 25 26 27 28 29 30 31 32 33 34 36 37 38 39 40 43
b 25 19 20 21 22 23 25 26 27 28 29 30 31 32 33 34 36 37 38 39 40 44
1 2
1 3
1 4
1 5
1 6
1 7
1 8
1 9
1 10
1 11
1 12
1 13
1 14
1 15
1 16
1 17
1 18
1 19
1 20
1 21
1 22
1 23
1 24
1 25
